language Essence 1.3

letting class be
        function(1 --> 3, 2 --> 9, 3 --> 2, 4 --> 4, 5 --> 3, 6 --> 8, 7 --> 8, 8 --> 3, 9 --> 3, 10 --> 8, 11 --> 9,
                 12 --> 4, 13 --> 2, 14 --> 9, 15 --> 7, 16 --> 8, 17 --> 3, 18 --> 1, 19 --> 5, 20 --> 9, 21 --> 7,
                 22 --> 8, 23 --> 6)
letting deck_length be 86
letting deck_width be 40
letting length be
        function(1 --> 2, 2 --> 23, 3 --> 1, 4 --> 1, 5 --> 1, 6 --> 15, 7 --> 1, 8 --> 1, 9 --> 1, 10 --> 1, 11 --> 1,
                 12 --> 7, 13 --> 1, 14 --> 1, 15 --> 1, 16 --> 1, 17 --> 1, 18 --> 1, 19 --> 3, 20 --> 1, 21 --> 1,
                 22 --> 1, 23 --> 1)
letting n_classes be 9
letting n_containers be 23
letting separation be function({1, 2} --> 71)
letting width be
        function(1 --> 18, 2 --> 40, 3 --> 23, 4 --> 25, 5 --> 4, 6 --> 40, 7 --> 24, 8 --> 6, 9 --> 16, 10 --> 6,
                 11 --> 1, 12 --> 31, 13 --> 2, 14 --> 2, 15 --> 6, 16 --> 27, 17 --> 28, 18 --> 6, 19 --> 26,
                 20 --> 10, 21 --> 23, 22 --> 22, 23 --> 13)
